Instance name:    bar-n100-4
Authors:          PDPTW Solver
Date:             2025-11-20
Reference:        LNS with SA/RTR
Solution
Route 1 : 16 66 1 4 51 54
Route 2 : 38 88 3 53 21 71 43 35 85 93
Route 3 : 26 76 22 45 72 95
Route 4 : 27 77 31 81 25 23 75 73
Route 5 : 6 56 10 8 13 60 58 63 12 62
Route 6 : 46 96 28 2 52 78 30 80
Route 7 : 7 48 98 57
Route 8 : 20 29 70 79 37 14 64 87
Route 9 : 18 5 55 68 33 83 40 90
Route 10 : 50 100 49 44 94 15 99 65
Route 11 : 47 97 9 59 42 92 41 91
Route 12 : 19 17 67 69 32 39 82 89
Route 13 : 36 86 11 61 34 24 84 74
